NAME 
ROWS
 N  OBJ
 L  R0      
 L  R1      
 L  R2      
 E  R3      
 E  R4      
 E  R5      
 E  R6      
 E  R7      
 E  R8      
 E  R9      
 E  R10     
 E  R11     
 E  R12     
COLUMNS
    MARKER    'MARKER'                 'INTORG'
    I0(9)     OBJ       -79
    I0(9)     R0        -200
    I0(9)     R1        -79
    I0(9)     R2        75
    I0(9)     R3        2
    I0(9)     R4        7
    I0(9)     R6        2
    I0(9)     R7        9
    I0(9)     R8        7
    I0(9)     R12       1
    I1(8)     OBJ       150
    I1(8)     R0        133
    I1(8)     R1        184
    I1(8)     R2        -88
    I1(8)     R5        12
    I1(8)     R6        2
    I1(8)     R7        3
    I1(8)     R8        2
    I1(8)     R12       1
    I2(10)    OBJ       131
    I2(10)    R0        -98
    I2(10)    R1        94
    I2(10)    R2        179
    I2(10)    R3        18
    I2(10)    R4        9
    I2(10)    R5        9
    I2(10)    R6        15
    I2(10)    R7        11
    I2(10)    R8        15
    I2(10)    R12       1
    I3(9)     OBJ       -147
    I3(9)     R0        168
    I3(9)     R1        -10
    I3(9)     R2        144
    I3(9)     R3        6
    I3(9)     R4        14
    I3(9)     R5        -1
    I3(9)     R6        14
    I3(9)     R7        2
    I3(9)     R12       1
    I4(8)     OBJ       -48
    I4(8)     R0        76
    I4(8)     R1        -8
    I4(8)     R2        196
    I4(8)     R3        16
    I4(8)     R5        8
    I4(8)     R6        5
    I4(8)     R8        3
    I4(8)     R12       1
    I5(9)     OBJ       -73
    I5(9)     R0        -14
    I5(9)     R1        -155
    I5(9)     R2        -149
    I5(9)     R3        9
    I5(9)     R5        7
    I5(9)     R6        5
    I5(9)     R7        2
    I5(9)     R8        16
    I5(9)     R12       1
    MARKER    'MARKER'                 'INTEND'
    C6(9)     OBJ       7
    C6(9)     R0        -8
    C6(9)     R1        -9
    C6(9)     R2        -10
    C6(9)     R4        18
    C6(9)     R5        10
    C6(9)     R7        10
    C6(9)     R8        12
    C6(9)     R9        15
    C6(9)     R10       19
    C7(9)     OBJ       9
    C7(9)     R0        1
    C7(9)     R1        1
    C7(9)     R2        -6
    C7(9)     R6        16
    C7(9)     R7        14
    C7(9)     R8        13
    C7(9)     R9        -1
    C7(9)     R10       4
    C7(9)     R11       3
    C8(9)     OBJ       -1
    C8(9)     R0        -3
    C8(9)     R1        -7
    C8(9)     R2        7
    C8(9)     R3        5
    C8(9)     R4        4
    C8(9)     R5        13
    C8(9)     R7        8
    C8(9)     R9        -1
    C8(9)     R11       5
    C9(10)    OBJ       -7
    C9(10)    R0        -4
    C9(10)    R1        -8
    C9(10)    R2        1
    C9(10)    R3        2
    C9(10)    R4        9
    C9(10)    R6        4
    C9(10)    R7        -1
    C9(10)    R8        19
    C9(10)    R10       16
    C9(10)    R11       13
    C10(1)    R3        1
    C11(1)    R4        1
    C12(1)    R5        1
    C13(1)    R6        1
    C14(1)    R7        1
    C15(1)    R8        1
    C16(1)    R9        1
    C17(1)    R10       1
    C18(1)    R11       1
    C19(1)    R12       1
RHS
    RHS1      R0        3.0306250000000006e+02
    RHS1      R1        -9.0937499999999915e+01
    RHS1      R2        3.2787499999999989e+02
    RHS1      R3        78
    RHS1      R4        91
    RHS1      R5        93
    RHS1      R6        76
    RHS1      R7        90
    RHS1      R8        97
    RHS1      R9        52
    RHS1      R10       71
    RHS1      R11       83
    RHS1      R12       2
BOUNDS
 UP BND1      I0(9)     2
 UP BND1      I1(8)     2
 UP BND1      I2(10)    2
 UP BND1      I3(9)     2
 UP BND1      I4(8)     2
 UP BND1      I5(9)     2
ENDATA
